p cnf 450 2826
1 2 3 4 5 6 7 8 9 0
10 11 12 13 14 15 16 17 18 0
19 20 21 22 23 24 25 26 27 0
28 29 30 31 32 33 34 35 36 0
37 38 39 40 41 42 43 44 45 0
46 47 48 49 50 51 52 53 54 0
55 56 57 58 59 60 61 62 63 0
64 65 66 67 68 69 70 71 72 0
73 74 75 76 77 78 79 80 81 0
82 83 84 85 86 87 88 89 90 0
91 92 93 94 95 96 97 98 99 0
100 101 102 103 104 105 106 107 108 0
109 110 111 112 113 114 115 116 117 0
118 119 120 121 122 123 124 125 126 0
127 128 129 130 131 132 133 134 135 0
136 137 138 139 140 141 142 143 144 0
145 146 147 148 149 150 151 152 153 0
154 155 156 157 158 159 160 161 162 0
163 164 165 166 167 168 169 170 171 0
172 173 174 175 176 177 178 179 180 0
181 182 183 184 185 186 187 188 189 0
190 191 192 193 194 195 196 197 198 0
199 200 201 202 203 204 205 206 207 0
208 209 210 211 212 213 214 215 216 0
217 218 219 220 221 222 223 224 225 0
226 227 228 229 230 231 232 233 234 0
235 236 237 238 239 240 241 242 243 0
244 245 246 247 248 249 250 251 252 0
253 254 255 256 257 258 259 260 261 0
262 263 264 265 266 267 268 269 270 0
271 272 273 274 275 276 277 278 279 0
280 281 282 283 284 285 286 287 288 0
289 290 291 292 293 294 295 296 297 0
298 299 300 301 302 303 304 305 306 0
307 308 309 310 311 312 313 314 315 0
316 317 318 319 320 321 322 323 324 0
325 326 327 328 329 330 331 332 333 0
334 335 336 337 338 339 340 341 342 0
343 344 345 346 347 348 349 350 351 0
352 353 354 355 356 357 358 359 360 0
361 362 363 364 365 366 367 368 369 0
370 371 372 373 374 375 376 377 378 0
379 380 381 382 383 384 385 386 387 0
388 389 390 391 392 393 394 395 396 0
397 398 399 400 401 402 403 404 405 0
406 407 408 409 410 411 412 413 414 0
415 416 417 418 419 420 421 422 423 0
424 425 426 427 428 429 430 431 432 0
433 434 435 436 437 438 439 440 441 0
442 443 444 445 446 447 448 449 450 0
-1 -2 0
-1 -3 0
-1 -4 0
-1 -5 0
-1 -6 0
-1 -7 0
-1 -8 0
-1 -9 0
-2 -3 0
-2 -4 0
-2 -5 0
-2 -6 0
-2 -7 0
-2 -8 0
-2 -9 0
-3 -4 0
-3 -5 0
-3 -6 0
-3 -7 0
-3 -8 0
-3 -9 0
-4 -5 0
-4 -6 0
-4 -7 0
-4 -8 0
-4 -9 0
-5 -6 0
-5 -7 0
-5 -8 0
-5 -9 0
-6 -7 0
-6 -8 0
-6 -9 0
-7 -8 0
-7 -9 0
-8 -9 0
-10 -11 0
-10 -12 0
-10 -13 0
-10 -14 0
-10 -15 0
-10 -16 0
-10 -17 0
-10 -18 0
-11 -12 0
-11 -13 0
-11 -14 0
-11 -15 0
-11 -16 0
-11 -17 0
-11 -18 0
-12 -13 0
-12 -14 0
-12 -15 0
-12 -16 0
-12 -17 0
-12 -18 0
-13 -14 0
-13 -15 0
-13 -16 0
-13 -17 0
-13 -18 0
-14 -15 0
-14 -16 0
-14 -17 0
-14 -18 0
-15 -16 0
-15 -17 0
-15 -18 0
-16 -17 0
-16 -18 0
-17 -18 0
-19 -20 0
-19 -21 0
-19 -22 0
-19 -23 0
-19 -24 0
-19 -25 0
-19 -26 0
-19 -27 0
-20 -21 0
-20 -22 0
-20 -23 0
-20 -24 0
-20 -25 0
-20 -26 0
-20 -27 0
-21 -22 0
-21 -23 0
-21 -24 0
-21 -25 0
-21 -26 0
-21 -27 0
-22 -23 0
-22 -24 0
-22 -25 0
-22 -26 0
-22 -27 0
-23 -24 0
-23 -25 0
-23 -26 0
-23 -27 0
-24 -25 0
-24 -26 0
-24 -27 0
-25 -26 0
-25 -27 0
-26 -27 0
-28 -29 0
-28 -30 0
-28 -31 0
-28 -32 0
-28 -33 0
-28 -34 0
-28 -35 0
-28 -36 0
-29 -30 0
-29 -31 0
-29 -32 0
-29 -33 0
-29 -34 0
-29 -35 0
-29 -36 0
-30 -31 0
-30 -32 0
-30 -33 0
-30 -34 0
-30 -35 0
-30 -36 0
-31 -32 0
-31 -33 0
-31 -34 0
-31 -35 0
-31 -36 0
-32 -33 0
-32 -34 0
-32 -35 0
-32 -36 0
-33 -34 0
-33 -35 0
-33 -36 0
-34 -35 0
-34 -36 0
-35 -36 0
-37 -38 0
-37 -39 0
-37 -40 0
-37 -41 0
-37 -42 0
-37 -43 0
-37 -44 0
-37 -45 0
-38 -39 0
-38 -40 0
-38 -41 0
-38 -42 0
-38 -43 0
-38 -44 0
-38 -45 0
-39 -40 0
-39 -41 0
-39 -42 0
-39 -43 0
-39 -44 0
-39 -45 0
-40 -41 0
-40 -42 0
-40 -43 0
-40 -44 0
-40 -45 0
-41 -42 0
-41 -43 0
-41 -44 0
-41 -45 0
-42 -43 0
-42 -44 0
-42 -45 0
-43 -44 0
-43 -45 0
-44 -45 0
-46 -47 0
-46 -48 0
-46 -49 0
-46 -50 0
-46 -51 0
-46 -52 0
-46 -53 0
-46 -54 0
-47 -48 0
-47 -49 0
-47 -50 0
-47 -51 0
-47 -52 0
-47 -53 0
-47 -54 0
-48 -49 0
-48 -50 0
-48 -51 0
-48 -52 0
-48 -53 0
-48 -54 0
-49 -50 0
-49 -51 0
-49 -52 0
-49 -53 0
-49 -54 0
-50 -51 0
-50 -52 0
-50 -53 0
-50 -54 0
-51 -52 0
-51 -53 0
-51 -54 0
-52 -53 0
-52 -54 0
-53 -54 0
-55 -56 0
-55 -57 0
-55 -58 0
-55 -59 0
-55 -60 0
-55 -61 0
-55 -62 0
-55 -63 0
-56 -57 0
-56 -58 0
-56 -59 0
-56 -60 0
-56 -61 0
-56 -62 0
-56 -63 0
-57 -58 0
-57 -59 0
-57 -60 0
-57 -61 0
-57 -62 0
-57 -63 0
-58 -59 0
-58 -60 0
-58 -61 0
-58 -62 0
-58 -63 0
-59 -60 0
-59 -61 0
-59 -62 0
-59 -63 0
-60 -61 0
-60 -62 0
-60 -63 0
-61 -62 0
-61 -63 0
-62 -63 0
-64 -65 0
-64 -66 0
-64 -67 0
-64 -68 0
-64 -69 0
-64 -70 0
-64 -71 0
-64 -72 0
-65 -66 0
-65 -67 0
-65 -68 0
-65 -69 0
-65 -70 0
-65 -71 0
-65 -72 0
-66 -67 0
-66 -68 0
-66 -69 0
-66 -70 0
-66 -71 0
-66 -72 0
-67 -68 0
-67 -69 0
-67 -70 0
-67 -71 0
-67 -72 0
-68 -69 0
-68 -70 0
-68 -71 0
-68 -72 0
-69 -70 0
-69 -71 0
-69 -72 0
-70 -71 0
-70 -72 0
-71 -72 0
-73 -74 0
-73 -75 0
-73 -76 0
-73 -77 0
-73 -78 0
-73 -79 0
-73 -80 0
-73 -81 0
-74 -75 0
-74 -76 0
-74 -77 0
-74 -78 0
-74 -79 0
-74 -80 0
-74 -81 0
-75 -76 0
-75 -77 0
-75 -78 0
-75 -79 0
-75 -80 0
-75 -81 0
-76 -77 0
-76 -78 0
-76 -79 0
-76 -80 0
-76 -81 0
-77 -78 0
-77 -79 0
-77 -80 0
-77 -81 0
-78 -79 0
-78 -80 0
-78 -81 0
-79 -80 0
-79 -81 0
-80 -81 0
-82 -83 0
-82 -84 0
-82 -85 0
-82 -86 0
-82 -87 0
-82 -88 0
-82 -89 0
-82 -90 0
-83 -84 0
-83 -85 0
-83 -86 0
-83 -87 0
-83 -88 0
-83 -89 0
-83 -90 0
-84 -85 0
-84 -86 0
-84 -87 0
-84 -88 0
-84 -89 0
-84 -90 0
-85 -86 0
-85 -87 0
-85 -88 0
-85 -89 0
-85 -90 0
-86 -87 0
-86 -88 0
-86 -89 0
-86 -90 0
-87 -88 0
-87 -89 0
-87 -90 0
-88 -89 0
-88 -90 0
-89 -90 0
-91 -92 0
-91 -93 0
-91 -94 0
-91 -95 0
-91 -96 0
-91 -97 0
-91 -98 0
-91 -99 0
-92 -93 0
-92 -94 0
-92 -95 0
-92 -96 0
-92 -97 0
-92 -98 0
-92 -99 0
-93 -94 0
-93 -95 0
-93 -96 0
-93 -97 0
-93 -98 0
-93 -99 0
-94 -95 0
-94 -96 0
-94 -97 0
-94 -98 0
-94 -99 0
-95 -96 0
-95 -97 0
-95 -98 0
-95 -99 0
-96 -97 0
-96 -98 0
-96 -99 0
-97 -98 0
-97 -99 0
-98 -99 0
-100 -101 0
-100 -102 0
-100 -103 0
-100 -104 0
-100 -105 0
-100 -106 0
-100 -107 0
-100 -108 0
-101 -102 0
-101 -103 0
-101 -104 0
-101 -105 0
-101 -106 0
-101 -107 0
-101 -108 0
-102 -103 0
-102 -104 0
-102 -105 0
-102 -106 0
-102 -107 0
-102 -108 0
-103 -104 0
-103 -105 0
-103 -106 0
-103 -107 0
-103 -108 0
-104 -105 0
-104 -106 0
-104 -107 0
-104 -108 0
-105 -106 0
-105 -107 0
-105 -108 0
-106 -107 0
-106 -108 0
-107 -108 0
-109 -110 0
-109 -111 0
-109 -112 0
-109 -113 0
-109 -114 0
-109 -115 0
-109 -116 0
-109 -117 0
-110 -111 0
-110 -112 0
-110 -113 0
-110 -114 0
-110 -115 0
-110 -116 0
-110 -117 0
-111 -112 0
-111 -113 0
-111 -114 0
-111 -115 0
-111 -116 0
-111 -117 0
-112 -113 0
-112 -114 0
-112 -115 0
-112 -116 0
-112 -117 0
-113 -114 0
-113 -115 0
-113 -116 0
-113 -117 0
-114 -115 0
-114 -116 0
-114 -117 0
-115 -116 0
-115 -117 0
-116 -117 0
-118 -119 0
-118 -120 0
-118 -121 0
-118 -122 0
-118 -123 0
-118 -124 0
-118 -125 0
-118 -126 0
-119 -120 0
-119 -121 0
-119 -122 0
-119 -123 0
-119 -124 0
-119 -125 0
-119 -126 0
-120 -121 0
-120 -122 0
-120 -123 0
-120 -124 0
-120 -125 0
-120 -126 0
-121 -122 0
-121 -123 0
-121 -124 0
-121 -125 0
-121 -126 0
-122 -123 0
-122 -124 0
-122 -125 0
-122 -126 0
-123 -124 0
-123 -125 0
-123 -126 0
-124 -125 0
-124 -126 0
-125 -126 0
-127 -128 0
-127 -129 0
-127 -130 0
-127 -131 0
-127 -132 0
-127 -133 0
-127 -134 0
-127 -135 0
-128 -129 0
-128 -130 0
-128 -131 0
-128 -132 0
-128 -133 0
-128 -134 0
-128 -135 0
-129 -130 0
-129 -131 0
-129 -132 0
-129 -133 0
-129 -134 0
-129 -135 0
-130 -131 0
-130 -132 0
-130 -133 0
-130 -134 0
-130 -135 0
-131 -132 0
-131 -133 0
-131 -134 0
-131 -135 0
-132 -133 0
-132 -134 0
-132 -135 0
-133 -134 0
-133 -135 0
-134 -135 0
-136 -137 0
-136 -138 0
-136 -139 0
-136 -140 0
-136 -141 0
-136 -142 0
-136 -143 0
-136 -144 0
-137 -138 0
-137 -139 0
-137 -140 0
-137 -141 0
-137 -142 0
-137 -143 0
-137 -144 0
-138 -139 0
-138 -140 0
-138 -141 0
-138 -142 0
-138 -143 0
-138 -144 0
-139 -140 0
-139 -141 0
-139 -142 0
-139 -143 0
-139 -144 0
-140 -141 0
-140 -142 0
-140 -143 0
-140 -144 0
-141 -142 0
-141 -143 0
-141 -144 0
-142 -143 0
-142 -144 0
-143 -144 0
-145 -146 0
-145 -147 0
-145 -148 0
-145 -149 0
-145 -150 0
-145 -151 0
-145 -152 0
-145 -153 0
-146 -147 0
-146 -148 0
-146 -149 0
-146 -150 0
-146 -151 0
-146 -152 0
-146 -153 0
-147 -148 0
-147 -149 0
-147 -150 0
-147 -151 0
-147 -152 0
-147 -153 0
-148 -149 0
-148 -150 0
-148 -151 0
-148 -152 0
-148 -153 0
-149 -150 0
-149 -151 0
-149 -152 0
-149 -153 0
-150 -151 0
-150 -152 0
-150 -153 0
-151 -152 0
-151 -153 0
-152 -153 0
-154 -155 0
-154 -156 0
-154 -157 0
-154 -158 0
-154 -159 0
-154 -160 0
-154 -161 0
-154 -162 0
-155 -156 0
-155 -157 0
-155 -158 0
-155 -159 0
-155 -160 0
-155 -161 0
-155 -162 0
-156 -157 0
-156 -158 0
-156 -159 0
-156 -160 0
-156 -161 0
-156 -162 0
-157 -158 0
-157 -159 0
-157 -160 0
-157 -161 0
-157 -162 0
-158 -159 0
-158 -160 0
-158 -161 0
-158 -162 0
-159 -160 0
-159 -161 0
-159 -162 0
-160 -161 0
-160 -162 0
-161 -162 0
-163 -164 0
-163 -165 0
-163 -166 0
-163 -167 0
-163 -168 0
-163 -169 0
-163 -170 0
-163 -171 0
-164 -165 0
-164 -166 0
-164 -167 0
-164 -168 0
-164 -169 0
-164 -170 0
-164 -171 0
-165 -166 0
-165 -167 0
-165 -168 0
-165 -169 0
-165 -170 0
-165 -171 0
-166 -167 0
-166 -168 0
-166 -169 0
-166 -170 0
-166 -171 0
-167 -168 0
-167 -169 0
-167 -170 0
-167 -171 0
-168 -169 0
-168 -170 0
-168 -171 0
-169 -170 0
-169 -171 0
-170 -171 0
-172 -173 0
-172 -174 0
-172 -175 0
-172 -176 0
-172 -177 0
-172 -178 0
-172 -179 0
-172 -180 0
-173 -174 0
-173 -175 0
-173 -176 0
-173 -177 0
-173 -178 0
-173 -179 0
-173 -180 0
-174 -175 0
-174 -176 0
-174 -177 0
-174 -178 0
-174 -179 0
-174 -180 0
-175 -176 0
-175 -177 0
-175 -178 0
-175 -179 0
-175 -180 0
-176 -177 0
-176 -178 0
-176 -179 0
-176 -180 0
-177 -178 0
-177 -179 0
-177 -180 0
-178 -179 0
-178 -180 0
-179 -180 0
-181 -182 0
-181 -183 0
-181 -184 0
-181 -185 0
-181 -186 0
-181 -187 0
-181 -188 0
-181 -189 0
-182 -183 0
-182 -184 0
-182 -185 0
-182 -186 0
-182 -187 0
-182 -188 0
-182 -189 0
-183 -184 0
-183 -185 0
-183 -186 0
-183 -187 0
-183 -188 0
-183 -189 0
-184 -185 0
-184 -186 0
-184 -187 0
-184 -188 0
-184 -189 0
-185 -186 0
-185 -187 0
-185 -188 0
-185 -189 0
-186 -187 0
-186 -188 0
-186 -189 0
-187 -188 0
-187 -189 0
-188 -189 0
-190 -191 0
-190 -192 0
-190 -193 0
-190 -194 0
-190 -195 0
-190 -196 0
-190 -197 0
-190 -198 0
-191 -192 0
-191 -193 0
-191 -194 0
-191 -195 0
-191 -196 0
-191 -197 0
-191 -198 0
-192 -193 0
-192 -194 0
-192 -195 0
-192 -196 0
-192 -197 0
-192 -198 0
-193 -194 0
-193 -195 0
-193 -196 0
-193 -197 0
-193 -198 0
-194 -195 0
-194 -196 0
-194 -197 0
-194 -198 0
-195 -196 0
-195 -197 0
-195 -198 0
-196 -197 0
-196 -198 0
-197 -198 0
-199 -200 0
-199 -201 0
-199 -202 0
-199 -203 0
-199 -204 0
-199 -205 0
-199 -206 0
-199 -207 0
-200 -201 0
-200 -202 0
-200 -203 0
-200 -204 0
-200 -205 0
-200 -206 0
-200 -207 0
-201 -202 0
-201 -203 0
-201 -204 0
-201 -205 0
-201 -206 0
-201 -207 0
-202 -203 0
-202 -204 0
-202 -205 0
-202 -206 0
-202 -207 0
-203 -204 0
-203 -205 0
-203 -206 0
-203 -207 0
-204 -205 0
-204 -206 0
-204 -207 0
-205 -206 0
-205 -207 0
-206 -207 0
-208 -209 0
-208 -210 0
-208 -211 0
-208 -212 0
-208 -213 0
-208 -214 0
-208 -215 0
-208 -216 0
-209 -210 0
-209 -211 0
-209 -212 0
-209 -213 0
-209 -214 0
-209 -215 0
-209 -216 0
-210 -211 0
-210 -212 0
-210 -213 0
-210 -214 0
-210 -215 0
-210 -216 0
-211 -212 0
-211 -213 0
-211 -214 0
-211 -215 0
-211 -216 0
-212 -213 0
-212 -214 0
-212 -215 0
-212 -216 0
-213 -214 0
-213 -215 0
-213 -216 0
-214 -215 0
-214 -216 0
-215 -216 0
-217 -218 0
-217 -219 0
-217 -220 0
-217 -221 0
-217 -222 0
-217 -223 0
-217 -224 0
-217 -225 0
-218 -219 0
-218 -220 0
-218 -221 0
-218 -222 0
-218 -223 0
-218 -224 0
-218 -225 0
-219 -220 0
-219 -221 0
-219 -222 0
-219 -223 0
-219 -224 0
-219 -225 0
-220 -221 0
-220 -222 0
-220 -223 0
-220 -224 0
-220 -225 0
-221 -222 0
-221 -223 0
-221 -224 0
-221 -225 0
-222 -223 0
-222 -224 0
-222 -225 0
-223 -224 0
-223 -225 0
-224 -225 0
-226 -227 0
-226 -228 0
-226 -229 0
-226 -230 0
-226 -231 0
-226 -232 0
-226 -233 0
-226 -234 0
-227 -228 0
-227 -229 0
-227 -230 0
-227 -231 0
-227 -232 0
-227 -233 0
-227 -234 0
-228 -229 0
-228 -230 0
-228 -231 0
-228 -232 0
-228 -233 0
-228 -234 0
-229 -230 0
-229 -231 0
-229 -232 0
-229 -233 0
-229 -234 0
-230 -231 0
-230 -232 0
-230 -233 0
-230 -234 0
-231 -232 0
-231 -233 0
-231 -234 0
-232 -233 0
-232 -234 0
-233 -234 0
-235 -236 0
-235 -237 0
-235 -238 0
-235 -239 0
-235 -240 0
-235 -241 0
-235 -242 0
-235 -243 0
-236 -237 0
-236 -238 0
-236 -239 0
-236 -240 0
-236 -241 0
-236 -242 0
-236 -243 0
-237 -238 0
-237 -239 0
-237 -240 0
-237 -241 0
-237 -242 0
-237 -243 0
-238 -239 0
-238 -240 0
-238 -241 0
-238 -242 0
-238 -243 0
-239 -240 0
-239 -241 0
-239 -242 0
-239 -243 0
-240 -241 0
-240 -242 0
-240 -243 0
-241 -242 0
-241 -243 0
-242 -243 0
-244 -245 0
-244 -246 0
-244 -247 0
-244 -248 0
-244 -249 0
-244 -250 0
-244 -251 0
-244 -252 0
-245 -246 0
-245 -247 0
-245 -248 0
-245 -249 0
-245 -250 0
-245 -251 0
-245 -252 0
-246 -247 0
-246 -248 0
-246 -249 0
-246 -250 0
-246 -251 0
-246 -252 0
-247 -248 0
-247 -249 0
-247 -250 0
-247 -251 0
-247 -252 0
-248 -249 0
-248 -250 0
-248 -251 0
-248 -252 0
-249 -250 0
-249 -251 0
-249 -252 0
-250 -251 0
-250 -252 0
-251 -252 0
-253 -254 0
-253 -255 0
-253 -256 0
-253 -257 0
-253 -258 0
-253 -259 0
-253 -260 0
-253 -261 0
-254 -255 0
-254 -256 0
-254 -257 0
-254 -258 0
-254 -259 0
-254 -260 0
-254 -261 0
-255 -256 0
-255 -257 0
-255 -258 0
-255 -259 0
-255 -260 0
-255 -261 0
-256 -257 0
-256 -258 0
-256 -259 0
-256 -260 0
-256 -261 0
-257 -258 0
-257 -259 0
-257 -260 0
-257 -261 0
-258 -259 0
-258 -260 0
-258 -261 0
-259 -260 0
-259 -261 0
-260 -261 0
-262 -263 0
-262 -264 0
-262 -265 0
-262 -266 0
-262 -267 0
-262 -268 0
-262 -269 0
-262 -270 0
-263 -264 0
-263 -265 0
-263 -266 0
-263 -267 0
-263 -268 0
-263 -269 0
-263 -270 0
-264 -265 0
-264 -266 0
-264 -267 0
-264 -268 0
-264 -269 0
-264 -270 0
-265 -266 0
-265 -267 0
-265 -268 0
-265 -269 0
-265 -270 0
-266 -267 0
-266 -268 0
-266 -269 0
-266 -270 0
-267 -268 0
-267 -269 0
-267 -270 0
-268 -269 0
-268 -270 0
-269 -270 0
-271 -272 0
-271 -273 0
-271 -274 0
-271 -275 0
-271 -276 0
-271 -277 0
-271 -278 0
-271 -279 0
-272 -273 0
-272 -274 0
-272 -275 0
-272 -276 0
-272 -277 0
-272 -278 0
-272 -279 0
-273 -274 0
-273 -275 0
-273 -276 0
-273 -277 0
-273 -278 0
-273 -279 0
-274 -275 0
-274 -276 0
-274 -277 0
-274 -278 0
-274 -279 0
-275 -276 0
-275 -277 0
-275 -278 0
-275 -279 0
-276 -277 0
-276 -278 0
-276 -279 0
-277 -278 0
-277 -279 0
-278 -279 0
-280 -281 0
-280 -282 0
-280 -283 0
-280 -284 0
-280 -285 0
-280 -286 0
-280 -287 0
-280 -288 0
-281 -282 0
-281 -283 0
-281 -284 0
-281 -285 0
-281 -286 0
-281 -287 0
-281 -288 0
-282 -283 0
-282 -284 0
-282 -285 0
-282 -286 0
-282 -287 0
-282 -288 0
-283 -284 0
-283 -285 0
-283 -286 0
-283 -287 0
-283 -288 0
-284 -285 0
-284 -286 0
-284 -287 0
-284 -288 0
-285 -286 0
-285 -287 0
-285 -288 0
-286 -287 0
-286 -288 0
-287 -288 0
-289 -290 0
-289 -291 0
-289 -292 0
-289 -293 0
-289 -294 0
-289 -295 0
-289 -296 0
-289 -297 0
-290 -291 0
-290 -292 0
-290 -293 0
-290 -294 0
-290 -295 0
-290 -296 0
-290 -297 0
-291 -292 0
-291 -293 0
-291 -294 0
-291 -295 0
-291 -296 0
-291 -297 0
-292 -293 0
-292 -294 0
-292 -295 0
-292 -296 0
-292 -297 0
-293 -294 0
-293 -295 0
-293 -296 0
-293 -297 0
-294 -295 0
-294 -296 0
-294 -297 0
-295 -296 0
-295 -297 0
-296 -297 0
-298 -299 0
-298 -300 0
-298 -301 0
-298 -302 0
-298 -303 0
-298 -304 0
-298 -305 0
-298 -306 0
-299 -300 0
-299 -301 0
-299 -302 0
-299 -303 0
-299 -304 0
-299 -305 0
-299 -306 0
-300 -301 0
-300 -302 0
-300 -303 0
-300 -304 0
-300 -305 0
-300 -306 0
-301 -302 0
-301 -303 0
-301 -304 0
-301 -305 0
-301 -306 0
-302 -303 0
-302 -304 0
-302 -305 0
-302 -306 0
-303 -304 0
-303 -305 0
-303 -306 0
-304 -305 0
-304 -306 0
-305 -306 0
-307 -308 0
-307 -309 0
-307 -310 0
-307 -311 0
-307 -312 0
-307 -313 0
-307 -314 0
-307 -315 0
-308 -309 0
-308 -310 0
-308 -311 0
-308 -312 0
-308 -313 0
-308 -314 0
-308 -315 0
-309 -310 0
-309 -311 0
-309 -312 0
-309 -313 0
-309 -314 0
-309 -315 0
-310 -311 0
-310 -312 0
-310 -313 0
-310 -314 0
-310 -315 0
-311 -312 0
-311 -313 0
-311 -314 0
-311 -315 0
-312 -313 0
-312 -314 0
-312 -315 0
-313 -314 0
-313 -315 0
-314 -315 0
-316 -317 0
-316 -318 0
-316 -319 0
-316 -320 0
-316 -321 0
-316 -322 0
-316 -323 0
-316 -324 0
-317 -318 0
-317 -319 0
-317 -320 0
-317 -321 0
-317 -322 0
-317 -323 0
-317 -324 0
-318 -319 0
-318 -320 0
-318 -321 0
-318 -322 0
-318 -323 0
-318 -324 0
-319 -320 0
-319 -321 0
-319 -322 0
-319 -323 0
-319 -324 0
-320 -321 0
-320 -322 0
-320 -323 0
-320 -324 0
-321 -322 0
-321 -323 0
-321 -324 0
-322 -323 0
-322 -324 0
-323 -324 0
-325 -326 0
-325 -327 0
-325 -328 0
-325 -329 0
-325 -330 0
-325 -331 0
-325 -332 0
-325 -333 0
-326 -327 0
-326 -328 0
-326 -329 0
-326 -330 0
-326 -331 0
-326 -332 0
-326 -333 0
-327 -328 0
-327 -329 0
-327 -330 0
-327 -331 0
-327 -332 0
-327 -333 0
-328 -329 0
-328 -330 0
-328 -331 0
-328 -332 0
-328 -333 0
-329 -330 0
-329 -331 0
-329 -332 0
-329 -333 0
-330 -331 0
-330 -332 0
-330 -333 0
-331 -332 0
-331 -333 0
-332 -333 0
-334 -335 0
-334 -336 0
-334 -337 0
-334 -338 0
-334 -339 0
-334 -340 0
-334 -341 0
-334 -342 0
-335 -336 0
-335 -337 0
-335 -338 0
-335 -339 0
-335 -340 0
-335 -341 0
-335 -342 0
-336 -337 0
-336 -338 0
-336 -339 0
-336 -340 0
-336 -341 0
-336 -342 0
-337 -338 0
-337 -339 0
-337 -340 0
-337 -341 0
-337 -342 0
-338 -339 0
-338 -340 0
-338 -341 0
-338 -342 0
-339 -340 0
-339 -341 0
-339 -342 0
-340 -341 0
-340 -342 0
-341 -342 0
-343 -344 0
-343 -345 0
-343 -346 0
-343 -347 0
-343 -348 0
-343 -349 0
-343 -350 0
-343 -351 0
-344 -345 0
-344 -346 0
-344 -347 0
-344 -348 0
-344 -349 0
-344 -350 0
-344 -351 0
-345 -346 0
-345 -347 0
-345 -348 0
-345 -349 0
-345 -350 0
-345 -351 0
-346 -347 0
-346 -348 0
-346 -349 0
-346 -350 0
-346 -351 0
-347 -348 0
-347 -349 0
-347 -350 0
-347 -351 0
-348 -349 0
-348 -350 0
-348 -351 0
-349 -350 0
-349 -351 0
-350 -351 0
-352 -353 0
-352 -354 0
-352 -355 0
-352 -356 0
-352 -357 0
-352 -358 0
-352 -359 0
-352 -360 0
-353 -354 0
-353 -355 0
-353 -356 0
-353 -357 0
-353 -358 0
-353 -359 0
-353 -360 0
-354 -355 0
-354 -356 0
-354 -357 0
-354 -358 0
-354 -359 0
-354 -360 0
-355 -356 0
-355 -357 0
-355 -358 0
-355 -359 0
-355 -360 0
-356 -357 0
-356 -358 0
-356 -359 0
-356 -360 0
-357 -358 0
-357 -359 0
-357 -360 0
-358 -359 0
-358 -360 0
-359 -360 0
-361 -362 0
-361 -363 0
-361 -364 0
-361 -365 0
-361 -366 0
-361 -367 0
-361 -368 0
-361 -369 0
-362 -363 0
-362 -364 0
-362 -365 0
-362 -366 0
-362 -367 0
-362 -368 0
-362 -369 0
-363 -364 0
-363 -365 0
-363 -366 0
-363 -367 0
-363 -368 0
-363 -369 0
-364 -365 0
-364 -366 0
-364 -367 0
-364 -368 0
-364 -369 0
-365 -366 0
-365 -367 0
-365 -368 0
-365 -369 0
-366 -367 0
-366 -368 0
-366 -369 0
-367 -368 0
-367 -369 0
-368 -369 0
-370 -371 0
-370 -372 0
-370 -373 0
-370 -374 0
-370 -375 0
-370 -376 0
-370 -377 0
-370 -378 0
-371 -372 0
-371 -373 0
-371 -374 0
-371 -375 0
-371 -376 0
-371 -377 0
-371 -378 0
-372 -373 0
-372 -374 0
-372 -375 0
-372 -376 0
-372 -377 0
-372 -378 0
-373 -374 0
-373 -375 0
-373 -376 0
-373 -377 0
-373 -378 0
-374 -375 0
-374 -376 0
-374 -377 0
-374 -378 0
-375 -376 0
-375 -377 0
-375 -378 0
-376 -377 0
-376 -378 0
-377 -378 0
-379 -380 0
-379 -381 0
-379 -382 0
-379 -383 0
-379 -384 0
-379 -385 0
-379 -386 0
-379 -387 0
-380 -381 0
-380 -382 0
-380 -383 0
-380 -384 0
-380 -385 0
-380 -386 0
-380 -387 0
-381 -382 0
-381 -383 0
-381 -384 0
-381 -385 0
-381 -386 0
-381 -387 0
-382 -383 0
-382 -384 0
-382 -385 0
-382 -386 0
-382 -387 0
-383 -384 0
-383 -385 0
-383 -386 0
-383 -387 0
-384 -385 0
-384 -386 0
-384 -387 0
-385 -386 0
-385 -387 0
-386 -387 0
-388 -389 0
-388 -390 0
-388 -391 0
-388 -392 0
-388 -393 0
-388 -394 0
-388 -395 0
-388 -396 0
-389 -390 0
-389 -391 0
-389 -392 0
-389 -393 0
-389 -394 0
-389 -395 0
-389 -396 0
-390 -391 0
-390 -392 0
-390 -393 0
-390 -394 0
-390 -395 0
-390 -396 0
-391 -392 0
-391 -393 0
-391 -394 0
-391 -395 0
-391 -396 0
-392 -393 0
-392 -394 0
-392 -395 0
-392 -396 0
-393 -394 0
-393 -395 0
-393 -396 0
-394 -395 0
-394 -396 0
-395 -396 0
-397 -398 0
-397 -399 0
-397 -400 0
-397 -401 0
-397 -402 0
-397 -403 0
-397 -404 0
-397 -405 0
-398 -399 0
-398 -400 0
-398 -401 0
-398 -402 0
-398 -403 0
-398 -404 0
-398 -405 0
-399 -400 0
-399 -401 0
-399 -402 0
-399 -403 0
-399 -404 0
-399 -405 0
-400 -401 0
-400 -402 0
-400 -403 0
-400 -404 0
-400 -405 0
-401 -402 0
-401 -403 0
-401 -404 0
-401 -405 0
-402 -403 0
-402 -404 0
-402 -405 0
-403 -404 0
-403 -405 0
-404 -405 0
-406 -407 0
-406 -408 0
-406 -409 0
-406 -410 0
-406 -411 0
-406 -412 0
-406 -413 0
-406 -414 0
-407 -408 0
-407 -409 0
-407 -410 0
-407 -411 0
-407 -412 0
-407 -413 0
-407 -414 0
-408 -409 0
-408 -410 0
-408 -411 0
-408 -412 0
-408 -413 0
-408 -414 0
-409 -410 0
-409 -411 0
-409 -412 0
-409 -413 0
-409 -414 0
-410 -411 0
-410 -412 0
-410 -413 0
-410 -414 0
-411 -412 0
-411 -413 0
-411 -414 0
-412 -413 0
-412 -414 0
-413 -414 0
-415 -416 0
-415 -417 0
-415 -418 0
-415 -419 0
-415 -420 0
-415 -421 0
-415 -422 0
-415 -423 0
-416 -417 0
-416 -418 0
-416 -419 0
-416 -420 0
-416 -421 0
-416 -422 0
-416 -423 0
-417 -418 0
-417 -419 0
-417 -420 0
-417 -421 0
-417 -422 0
-417 -423 0
-418 -419 0
-418 -420 0
-418 -421 0
-418 -422 0
-418 -423 0
-419 -420 0
-419 -421 0
-419 -422 0
-419 -423 0
-420 -421 0
-420 -422 0
-420 -423 0
-421 -422 0
-421 -423 0
-422 -423 0
-424 -425 0
-424 -426 0
-424 -427 0
-424 -428 0
-424 -429 0
-424 -430 0
-424 -431 0
-424 -432 0
-425 -426 0
-425 -427 0
-425 -428 0
-425 -429 0
-425 -430 0
-425 -431 0
-425 -432 0
-426 -427 0
-426 -428 0
-426 -429 0
-426 -430 0
-426 -431 0
-426 -432 0
-427 -428 0
-427 -429 0
-427 -430 0
-427 -431 0
-427 -432 0
-428 -429 0
-428 -430 0
-428 -431 0
-428 -432 0
-429 -430 0
-429 -431 0
-429 -432 0
-430 -431 0
-430 -432 0
-431 -432 0
-433 -434 0
-433 -435 0
-433 -436 0
-433 -437 0
-433 -438 0
-433 -439 0
-433 -440 0
-433 -441 0
-434 -435 0
-434 -436 0
-434 -437 0
-434 -438 0
-434 -439 0
-434 -440 0
-434 -441 0
-435 -436 0
-435 -437 0
-435 -438 0
-435 -439 0
-435 -440 0
-435 -441 0
-436 -437 0
-436 -438 0
-436 -439 0
-436 -440 0
-436 -441 0
-437 -438 0
-437 -439 0
-437 -440 0
-437 -441 0
-438 -439 0
-438 -440 0
-438 -441 0
-439 -440 0
-439 -441 0
-440 -441 0
-442 -443 0
-442 -444 0
-442 -445 0
-442 -446 0
-442 -447 0
-442 -448 0
-442 -449 0
-442 -450 0
-443 -444 0
-443 -445 0
-443 -446 0
-443 -447 0
-443 -448 0
-443 -449 0
-443 -450 0
-444 -445 0
-444 -446 0
-444 -447 0
-444 -448 0
-444 -449 0
-444 -450 0
-445 -446 0
-445 -447 0
-445 -448 0
-445 -449 0
-445 -450 0
-446 -447 0
-446 -448 0
-446 -449 0
-446 -450 0
-447 -448 0
-447 -449 0
-447 -450 0
-448 -449 0
-448 -450 0
-449 -450 0
-7 -33 0
-8 -35 0
-8 -31 0
-5 -31 0
-8 -29 0
-1 -36 0
-4 -31 0
-4 -33 0
-5 -210 0
-9 -210 0
-4 -210 0
-7 -214 0
-5 -213 0
-3 -215 0
-2 -213 0
-2 -212 0
-8 -418 0
-4 -421 0
-3 -415 0
-9 -421 0
-1 -415 0
-8 -422 0
-3 -417 0
-5 -421 0
-5 -429 0
-4 -427 0
-2 -427 0
-1 -428 0
-4 -428 0
-5 -424 0
-4 -430 0
-2 -432 0
-15 -26 0
-18 -25 0
-13 -21 0
-11 -19 0
-17 -26 0
-16 -24 0
-11 -26 0
-14 -19 0
-16 -84 0
-10 -85 0
-17 -82 0
-17 -86 0
-14 -86 0
-17 -85 0
-10 -84 0
-15 -90 0
-14 -187 0
-12 -183 0
-17 -183 0
-10 -186 0
-12 -187 0
-18 -181 0
-13 -183 0
-13 -185 0
-11 -223 0
-14 -224 0
-12 -219 0
-14 -222 0
-14 -223 0
-15 -223 0
-14 -220 0
-11 -225 0
-15 -242 0
-10 -239 0
-16 -235 0
-16 -237 0
-12 -242 0
-11 -236 0
-16 -240 0
-15 -238 0
-15 -262 0
-12 -266 0
-11 -263 0
-11 -268 0
-15 -267 0
-18 -270 0
-10 -270 0
-13 -267 0
-18 -278 0
-11 -275 0
-11 -273 0
-12 -276 0
-16 -277 0
-14 -271 0
-13 -272 0
-18 -275 0
-15 -347 0
-16 -347 0
-11 -346 0
-15 -344 0
-18 -351 0
-13 -345 0
-13 -348 0
-12 -346 0
-13 -381 0
-17 -379 0
-10 -386 0
-11 -381 0
-17 -385 0
-12 -386 0
-15 -380 0
-10 -383 0
-13 -432 0
-11 -424 0
-12 -427 0
-18 -424 0
-10 -432 0
-11 -430 0
-14 -432 0
-13 -428 0
-11 -434 0
-12 -434 0
-17 -439 0
-14 -439 0
-14 -438 0
-12 -433 0
-15 -433 0
-14 -441 0
-25 -47 0
-20 -49 0
-25 -52 0
-26 -50 0
-21 -51 0
-23 -49 0
-21 -53 0
-19 -48 0
-23 -202 0
-20 -200 0
-26 -207 0
-21 -203 0
-21 -206 0
-25 -203 0
-26 -204 0
-21 -207 0
-27 -311 0
-19 -313 0
-22 -315 0
-21 -314 0
-20 -310 0
-19 -312 0
-20 -312 0
-24 -313 0
-20 -349 0
-24 -348 0
-25 -347 0
-20 -350 0
-23 -349 0
-23 -348 0
-23 -343 0
-20 -345 0
-36 -153 0
-36 -152 0
-35 -146 0
-31 -146 0
-36 -146 0
-33 -152 0
-28 -150 0
-32 -149 0
-28 -207 0
-29 -206 0
-30 -205 0
-32 -203 0
-30 -201 0
-32 -207 0
-36 -205 0
-30 -207 0
-33 -243 0
-29 -240 0
-32 -236 0
-33 -236 0
-32 -242 0
-28 -242 0
-31 -241 0
-31 -239 0
-32 -250 0
-31 -248 0
-36 -250 0
-29 -247 0
-36 -247 0
-35 -252 0
-30 -246 0
-29 -246 0
-33 -256 0
-29 -256 0
-30 -254 0
-33 -261 0
-33 -255 0
-34 -260 0
-29 -261 0
-30 -253 0
-31 -283 0
-32 -285 0
-36 -287 0
-28 -288 0
-30 -283 0
-29 -285 0
-28 -285 0
-32 -284 0
-29 -425 0
-30 -428 0
-31 -431 0
-30 -429 0
-28 -432 0
-30 -430 0
-36 -431 0
-28 -425 0
-41 -166 0
-41 -167 0
-39 -166 0
-38 -165 0
-38 -163 0
-45 -165 0
-37 -169 0
-40 -163 0
-45 -202 0
-39 -205 0
-40 -199 0
-44 -205 0
-45 -201 0
-44 -199 0
-37 -204 0
-45 -200 0
-43 -404 0
-40 -398 0
-41 -397 0
-43 -397 0
-39 -404 0
-37 -404 0
-45 -400 0
-41 -404 0
-48 -217 0
-52 -225 0
-49 -225 0
-48 -222 0
-50 -222 0
-51 -217 0
-49 -223 0
-54 -218 0
-52 -367 0
-54 -361 0
-49 -369 0
-47 -368 0
-48 -364 0
-49 -367 0
-50 -361 0
-47 -366 0
-55 -93 0
-61 -97 0
-57 -96 0
-63 -97 0
-62 -94 0
-61 -98 0
-56 -95 0
-62 -98 0
-63 -115 0
-59 -117 0
-62 -113 0
-55 -116 0
-60 -116 0
-55 -109 0
-61 -117 0
-63 -112 0
-62 -224 0
-55 -223 0
-60 -217 0
-57 -224 0
-60 -223 0
-57 -223 0
-56 -224 0
-60 -220 0
-59 -306 0
-56 -302 0
-60 -301 0
-63 -305 0
-57 -302 0
-62 -302 0
-55 -306 0
-60 -302 0
-56 -324 0
-60 -320 0
-58 -317 0
-57 -317 0
-63 -319 0
-61 -316 0
-63 -318 0
-55 -316 0
-57 -378 0
-58 -376 0
-59 -376 0
-60 -371 0
-61 -372 0
-56 -375 0
-59 -375 0
-59 -378 0
-59 -393 0
-59 -394 0
-58 -394 0
-58 -395 0
-63 -396 0
-58 -390 0
-57 -394 0
-61 -392 0
-59 -428 0
-60 -430 0
-59 -426 0
-57 -425 0
-63 -425 0
-58 -429 0
-56 -432 0
-57 -430 0
-69 -198 0
-70 -191 0
-64 -193 0
-64 -191 0
-70 -198 0
-69 -197 0
-65 -198 0
-68 -191 0
-71 -209 0
-69 -214 0
-71 -214 0
-71 -215 0
-69 -213 0
-66 -212 0
-71 -208 0
-69 -215 0
-69 -273 0
-66 -278 0
-71 -273 0
-64 -276 0
-65 -278 0
-71 -274 0
-65 -272 0
-64 -279 0
-70 -349 0
-67 -346 0
-69 -351 0
-68 -346 0
-64 -345 0
-65 -350 0
-66 -351 0
-65 -351 0
-80 -188 0
-75 -189 0
-75 -184 0
-73 -181 0
-79 -184 0
-78 -187 0
-73 -188 0
-80 -185 0
-85 -132 0
-86 -130 0
-83 -130 0
-82 -134 0
-88 -131 0
-89 -127 0
-89 -132 0
-88 -130 0
-87 -182 0
-85 -184 0
-84 -184 0
-88 -185 0
-86 -184 0
-87 -183 0
-86 -186 0
-85 -187 0
-98 -194 0
-95 -191 0
-97 -197 0
-97 -198 0
-96 -196 0
-92 -192 0
-93 -198 0
-96 -195 0
-95 -225 0
-96 -220 0
-99 -223 0
-97 -218 0
-96 -219 0
-93 -219 0
-98 -219 0
-97 -219 0
-95 -236 0
-93 -243 0
-99 -239 0
-97 -238 0
-99 -243 0
-95 -241 0
-98 -241 0
-94 -236 0
-92 -252 0
-95 -248 0
-92 -248 0
-98 -250 0
-98 -249 0
-99 -250 0
-94 -249 0
-93 -244 0
-98 -267 0
-98 -269 0
-93 -262 0
-99 -267 0
-94 -263 0
-92 -267 0
-98 -262 0
-95 -269 0
-97 -344 0
-96 -348 0
-99 -350 0
-95 -350 0
-91 -350 0
-95 -343 0
-92 -348 0
-99 -351 0
-91 -398 0
-94 -404 0
-91 -402 0
-92 -397 0
-97 -402 0
-97 -399 0
-93 -402 0
-91 -399 0
-101 -206 0
-105 -203 0
-102 -200 0
-104 -205 0
-106 -203 0
-106 -201 0
-100 -204 0
-100 -202 0
-104 -433 0
-108 -435 0
-102 -433 0
-101 -436 0
-101 -440 0
-101 -435 0
-102 -437 0
-105 -439 0
-114 -266 0
-112 -264 0
-112 -265 0
-113 -265 0
-116 -268 0
-109 -264 0
-112 -263 0
-117 -268 0
-110 -351 0
-109 -345 0
-111 -343 0
-113 -351 0
-111 -349 0
-109 -347 0
-114 -344 0
-115 -351 0
-116 -359 0
-110 -356 0
-112 -353 0
-116 -357 0
-115 -357 0
-113 -354 0
-111 -352 0
-116 -360 0
-121 -297 0
-126 -293 0
-125 -293 0
-118 -295 0
-123 -295 0
-125 -294 0
-125 -295 0
-120 -292 0
-124 -331 0
-120 -330 0
-124 -332 0
-119 -328 0
-121 -332 0
-124 -327 0
-125 -326 0
-124 -325 0
-119 -334 0
-118 -338 0
-126 -340 0
-120 -339 0
-118 -336 0
-124 -336 0
-120 -336 0
-119 -339 0
-135 -177 0
-128 -180 0
-129 -177 0
-131 -177 0
-129 -180 0
-133 -173 0
-134 -173 0
-131 -176 0
-127 -332 0
-128 -325 0
-133 -327 0
-131 -327 0
-131 -332 0
-133 -332 0
-127 -326 0
-129 -326 0
-136 -161 0
-141 -156 0
-144 -160 0
-141 -157 0
-140 -158 0
-139 -162 0
-137 -160 0
-140 -161 0
-141 -163 0
-138 -168 0
-140 -164 0
-137 -164 0
-144 -164 0
-137 -170 0
-136 -169 0
-138 -171 0
-137 -364 0
-142 -363 0
-141 -367 0
-137 -362 0
-136 -366 0
-141 -363 0
-137 -369 0
-140 -367 0
-153 -305 0
-146 -306 0
-150 -301 0
-145 -299 0
-149 -305 0
-145 -306 0
-153 -303 0
-148 -306 0
-148 -370 0
-150 -374 0
-150 -375 0
-151 -377 0
-152 -373 0
-148 -371 0
-145 -376 0
-152 -377 0
-147 -389 0
-152 -388 0
-150 -389 0
-150 -392 0
-147 -391 0
-147 -388 0
-145 -392 0
-149 -390 0
-158 -175 0
-154 -175 0
-155 -176 0
-159 -179 0
-156 -180 0
-160 -173 0
-159 -175 0
-157 -172 0
-161 -203 0
-157 -200 0
-159 -207 0
-158 -199 0
-162 -204 0
-162 -207 0
-160 -202 0
-161 -205 0
-159 -358 0
-162 -355 0
-157 -353 0
-161 -352 0
-155 -354 0
-158 -355 0
-158 -356 0
-160 -356 0
-171 -236 0
-167 -235 0
-169 -236 0
-168 -240 0
-170 -241 0
-170 -236 0
-170 -243 0
-168 -241 0
-165 -275 0
-165 -274 0
-164 -275 0
-168 -278 0
-163 -279 0
-166 -271 0
-168 -277 0
-171 -273 0
-167 -352 0
-164 -355 0
-168 -360 0
-165 -356 0
-164 -359 0
-168 -357 0
-167 -354 0
-168 -353 0
-164 -399 0
-171 -401 0
-166 -404 0
-164 -405 0
-166 -398 0
-166 -397 0
-164 -400 0
-164 -398 0
-172 -214 0
-175 -216 0
-180 -211 0
-180 -209 0
-174 -210 0
-173 -211 0
-177 -214 0
-172 -212 0
-176 -312 0
-173 -309 0
-173 -311 0
-175 -312 0
-176 -315 0
-177 -315 0
-179 -308 0
-174 -311 0
-177 -368 0
-173 -363 0
-174 -367 0
-180 -369 0
-173 -365 0
-176 -365 0
-177 -365 0
-179 -364 0
-186 -202 0
-187 -203 0
-184 -207 0
-181 -200 0
-185 -203 0
-189 -207 0
-185 -207 0
-185 -206 0
-182 -287 0
-189 -280 0
-182 -280 0
-187 -280 0
-188 -287 0
-187 -287 0
-185 -284 0
-182 -288 0
-182 -358 0
-187 -356 0
-181 -354 0
-183 -353 0
-189 -357 0
-185 -353 0
-185 -356 0
-189 -358 0
-182 -409 0
-181 -409 0
-186 -413 0
-185 -414 0
-185 -410 0
-188 -409 0
-187 -407 0
-188 -413 0
-183 -422 0
-189 -415 0
-182 -423 0
-187 -417 0
-184 -421 0
-187 -416 0
-183 -423 0
-184 -422 0
-192 -235 0
-194 -237 0
-190 -235 0
-197 -242 0
-194 -240 0
-192 -243 0
-193 -235 0
-195 -241 0
-190 -389 0
-195 -393 0
-190 -395 0
-193 -390 0
-190 -390 0
-193 -389 0
-193 -393 0
-195 -395 0
-194 -422 0
-191 -417 0
-197 -416 0
-196 -418 0
-192 -419 0
-195 -423 0
-195 -421 0
-191 -419 0
-206 -296 0
-200 -294 0
-206 -292 0
-203 -295 0
-200 -291 0
-207 -291 0
-207 -294 0
-203 -291 0
-199 -323 0
-203 -318 0
-199 -321 0
-205 -320 0
-201 -320 0
-207 -322 0
-199 -316 0
-200 -320 0
-206 -350 0
-200 -343 0
-205 -344 0
-204 -346 0
-204 -349 0
-200 -351 0
-207 -346 0
-200 -344 0
-199 -425 0
-204 -425 0
-203 -424 0
-202 -425 0
-206 -431 0
-200 -428 0
-200 -432 0
-202 -431 0
-209 -262 0
-211 -263 0
-212 -264 0
-215 -268 0
-213 -266 0
-215 -269 0
-214 -268 0
-215 -270 0
-219 -292 0
-221 -295 0
-219 -296 0
-219 -297 0
-220 -295 0
-223 -293 0
-219 -294 0
-222 -290 0
-218 -378 0
-219 -373 0
-217 -371 0
-223 -375 0
-224 -375 0
-223 -373 0
-220 -376 0
-219 -375 0
-225 -417 0
-221 -419 0
-220 -415 0
-225 -418 0
-218 -417 0
-217 -415 0
-220 -420 0
-224 -417 0
-232 -263 0
-232 -264 0
-227 -270 0
-226 -265 0
-234 -264 0
-229 -264 0
-226 -263 0
-233 -263 0
-227 -389 0
-228 -388 0
-232 -388 0
-227 -393 0
-226 -396 0
-233 -396 0
-234 -391 0
-232 -396 0
-235 -326 0
-236 -329 0
-235 -331 0
-241 -333 0
-240 -330 0
-240 -328 0
-239 -329 0
-241 -330 0
-236 -337 0
-243 -341 0
-241 -340 0
-239 -338 0
-242 -341 0
-241 -341 0
-235 -340 0
-239 -341 0
-239 -384 0
-237 -379 0
-236 -382 0
-235 -381 0
-236 -383 0
-242 -386 0
-238 -387 0
-240 -381 0
-250 -274 0
-247 -275 0
-251 -271 0
-245 -273 0
-252 -272 0
-245 -272 0
-246 -276 0
-245 -278 0
-248 -360 0
-245 -352 0
-252 -354 0
-246 -354 0
-245 -356 0
-249 -358 0
-251 -354 0
-244 -352 0
-244 -414 0
-247 -414 0
-250 -411 0
-249 -412 0
-247 -407 0
-249 -414 0
-247 -406 0
-251 -412 0
-258 -373 0
-255 -378 0
-254 -371 0
-260 -374 0
-260 -376 0
-255 -372 0
-260 -377 0
-261 -375 0
-268 -319 0
-270 -321 0
-265 -322 0
-268 -316 0
-263 -316 0
-265 -317 0
-266 -318 0
-268 -320 0
-274 -433 0
-276 -434 0
-276 -437 0
-271 -435 0
-279 -441 0
-271 -441 0
-278 -437 0
-277 -433 0
-282 -380 0
-281 -386 0
-283 -383 0
-284 -379 0
-288 -384 0
-281 -384 0
-288 -385 0
-282 -379 0
-296 -446 0
-291 -448 0
-295 -442 0
-290 -448 0
-292 -450 0
-290 -444 0
-296 -442 0
-297 -446 0
-304 -329 0
-305 -326 0
-306 -331 0
-305 -329 0
-298 -326 0
-301 -331 0
-304 -326 0
-298 -332 0
-302 -351 0
-302 -345 0
-303 -350 0
-305 -346 0
-300 -346 0
-298 -343 0
-304 -344 0
-299 -344 0
-303 -365 0
-299 -367 0
-300 -367 0
-299 -365 0
-302 -368 0
-302 -369 0
-299 -361 0
-306 -369 0
-317 -355 0
-322 -360 0
-316 -357 0
-320 -354 0
-324 -355 0
-323 -357 0
-319 -360 0
-324 -357 0
-318 -447 0
-323 -450 0
-319 -446 0
-319 -445 0
-322 -442 0
-324 -448 0
-320 -446 0
-324 -444 0
-328 -354 0
-331 -359 0
-328 -359 0
-327 -352 0
-325 -357 0
-333 -358 0
-327 -355 0
-332 -352 0
-327 -374 0
-332 -378 0
-333 -375 0
-328 -370 0
-328 -372 0
-331 -376 0
-328 -377 0
-327 -375 0
-327 -407 0
-325 -409 0
-332 -408 0
-331 -410 0
-326 -409 0
-325 -407 0
-331 -414 0
-326 -411 0
-331 -419 0
-329 -422 0
-333 -421 0
-326 -415 0
-328 -417 0
-330 -423 0
-325 -415 0
-326 -416 0
-327 -426 0
-331 -428 0
-327 -432 0
-326 -429 0
-328 -425 0
-328 -431 0
-325 -424 0
-332 -429 0
-341 -385 0
-336 -382 0
-339 -387 0
-340 -380 0
-342 -381 0
-338 -387 0
-341 -387 0
-339 -380 0
-342 -434 0
-339 -438 0
-342 -438 0
-340 -439 0
-340 -441 0
-338 -436 0
-338 -439 0
-340 -438 0
-384 -448 0
-385 -442 0
-382 -450 0
-380 -444 0
-384 -450 0
-385 -444 0
-385 -447 0
-387 -448 0
-404 -442 0
-398 -444 0
-404 -443 0
-403 -449 0
-401 -448 0
-398 -445 0
-398 -442 0
-399 -442 0
